##TITLE=2,3-Dimethoxybenzoic acid
##JCAMP-DX=4.24
##DATA TYPE=MASS SPECTRUM
##ORIGIN=NIST Mass Spectrometry Data Center
##OWNER=NIST Mass Spectrometry Data Center
Collection (C) 2008 copyright by the U.S. Secretary of Commerce
on behalf of the United States of America. All rights reserved.
##CAS REGISTRY NO=1521-38-6
##$NIST MASS SPEC NO=340849
##MOLFORM=C9H10O4
##MW=182
##$NIST SOURCE=MSDC
##XUNITS=M/Z
##YUNITS=RELATIVE ABUNDANCE
##XFACTOR=1
##YFACTOR=1
##FIRSTX=15
##LASTX=184
##FIRSTY=581
##MAXX=184
##MINX=15
##MAXY=9999
##MINY=20
##NPOINTS=103
##PEAK TABLE=(XY..XY)
15,581 16,20 26,150 27,240
29,350 30,60 31,170 37,260
38,360 39,1091 40,230 41,340
42,110 43,140 44,90 45,450
49,160 50,1401 51,2993 52,921
53,1521 54,160 55,761 56,30
59,150 60,50 61,250 62,621
63,1211 64,430 65,2322 66,340
67,340 68,811 69,130 70,30
71,30 73,50 74,360 75,280
76,831 77,2082 78,520 79,2212
80,450 81,561 82,50 83,90
89,30 90,250 91,841 92,821
93,540 94,601 95,370 96,490
97,30 103,90 104,330 105,1131
106,290 107,9999 108,1321 109,3613
110,300 111,340 112,30 118,691
119,1351 120,490 121,1481 122,1411
123,340 124,120 125,20 132,270
133,290 134,180 135,2843 136,721
137,3443 138,350 139,320 145,30
146,30 147,80 149,4174 150,510
151,390 152,170 153,1902 154,270
155,20 163,851 164,220 165,681
166,90 167,470 168,40 180,280
182,6556 183,671 184,70
##END=
