##TITLE=Benzenemethanamine, 4-chloro-.alpha.-phenyl-
##JCAMP-DX=4.24
##DATA TYPE=MASS SPECTRUM
##ORIGIN=Japan AIST/NIMC Database- Spectrum MS-IW- 11
##OWNER=NIST Mass Spectrometry Data Center
Collection (C) 2008 copyright by the U.S. Secretary of Commerce
on behalf of the United States of America. All rights reserved.
##CAS REGISTRY NO=28022-43-7
##$NIST MASS SPEC NO=239279
##MOLFORM=C13H12ClN
##MW=217
##$NIST SOURCE=MSDC
##XUNITS=M/Z
##YUNITS=RELATIVE ABUNDANCE
##XFACTOR=1
##YFACTOR=1
##FIRSTX=27
##LASTX=221
##FIRSTY=70
##MAXX=221
##MINX=27
##MAXY=9999
##MINY=10
##NPOINTS=109
##PEAK TABLE=(XY..XY)
27,70 28,1599 29,50 30,40
39,149 40,10 41,10 50,229
51,569 52,159 53,50 54,20
61,10 62,50 63,169 64,40
65,50 66,10 69,90 70,20
73,40 74,99 75,349 76,319
77,2039 78,339 79,1029 80,70
81,109 82,219 83,90 85,30
86,30 87,50 88,20 89,169
90,329 91,99 98,10 99,30
100,20 101,30 102,189 103,60
104,2239 105,9999 106,5079 107,379
108,40 109,10 110,10 111,329
112,70 113,599 114,80 115,219
116,20 119,10 123,10 125,30
126,40 127,50 128,30 137,20
138,1449 139,2649 140,5899 141,1259
142,1739 143,139 149,20 150,30
151,99 152,189 153,119 154,40
155,50 162,20 163,189 164,219
165,1089 166,539 167,129 168,10
173,10 177,20 178,40 179,30
180,289 181,99 182,549 183,80
188,20 189,10 190,10 199,149
200,50 201,309 202,80 203,90
204,20 214,99 215,50 216,1359
217,2899 218,829 219,969 220,129
221,10
##END=
